(set-logic QF_UF)
(declare-sort U 0)
(declare-sort I 0)
(declare-fun op1 (I I) I)
(declare-fun op (I I) I)
(declare-fun e4 () I)
(declare-fun e3 () I)
(declare-fun e2 () I)
(declare-fun e1 () I)
(declare-fun e0 () I)
(assert (not (and (and (and (and (not (= (op e4 e0) (op e4 e1))) (not (= (op e4 e0) (op e4 e2)))) (not (= (op e4 e0) (op e4 e3)))) (not (= (op e4 e0) (op e4 e4)))) (not (= (op e4 e1) (op e4 e2))))))
(assert (and (and (and (and (and (not (= (op e4 e0) (op e4 e1))) (not (= (op e4 e0) (op e4 e2)))) (not (= (op e4 e0) (op e4 e3)))) (not (= (op e4 e0) (op e4 e4)))) (not (= (op e4 e1) (op e4 e2)))) (not (= (op e4 e1) (op e4 e3)))))
(check-sat)
(exit)
